GLPSOL: GLPK LP/MIP Solver, v4.55
Parameter(s) specified in the command line:
 -m tmp.mod
Reading model section from tmp.mod...
Reading data section from tmp.mod...
5291 lines were read
Generating obj...
Generating kirhoff...
Generating init_charge...
Generating batt_size...
Model has been successfully generated
GLPK Simplex Optimizer, v4.55
5149 rows, 9169 columns, 19662 non-zeros
Preprocessing...
4334 rows, 9011 columns, 19260 non-zeros
Scaling...
 A: min|aij| =  1.000e+00  max|aij| =  1.000e+00  ratio =  1.000e+00
Problem data seem to be well scaled
Constructing initial basis...
Size of triangular part is 3650
      0: obj =   0.000000000e+00  infeas =  2.591e+03 (684)
    500: obj =   0.000000000e+00  infeas =  2.356e+03 (512)
   1000: obj =   1.840000000e+02  infeas =  1.356e+03 (353)
   1500: obj =   2.860000000e+02  infeas =  2.080e+02 (292)
*  1711: obj =   3.450000000e+02  infeas =  0.000e+00 (271)
*  2000: obj =   2.190000000e+02  infeas =  0.000e+00 (264)
*  2041: obj =   2.120000000e+02  infeas =  0.000e+00 (260)
OPTIMAL LP SOLUTION FOUND
Time used:   0.7 secs
Memory used: 17.7 Mb (18515399 bytes)
#OUTPUT:
212
-40 3 0 0 0 0 -61 0 3 5 -12 0 0 0 0 0 0 0 0 0 0 0 0 0 0 0 0 0 0 0 0 0 0 0 0 0 0 0 0 -9 0 0 0 0 0 0 0 0 0 0 0 0 0 0 0 0 -43 0 0 0 -7 0 -9 0 -5 0 0 2 0 3 0 0 0 0 0 -6 0 0 0 0 0 0 0 0 0 0 0 0 0 0 3 0 0 0 0 0 0 0 5 0 0 0 0 0 0 0 0 0 0 0 0 0 0 0 0 0 0 0 0 -44 0 0 0 0 -3 0 0 -41 0 0 -35 27 0 0 0 0 0 0 3 -2 -8 -27 0 0 0 0 0 0 0 0 0 0 0 0 0 0 0 0 0 0 0 0 0 0 0 0 0 0 0 0 0 0 0 0 0 0 0 0 -3 -27 0 0 0 0 0 0 0 0 0 0 0 0 0 0 0 0 0 0 0 0 0 0 0 0 0 0 0 0 0 0 0 -3 0 0 0 0 0 0 0 -5 0 0 0 0 0 27 0 0 0 0 0 0 0 0 0 0 0 0 0 0 0 0 0 0 0 0 0 0 0 0 0 0 0 43 0 0 0 0 0 0 0 0 0 0 0 0 0 0 0 0 0 0 0 0 0 0 0 0 0 0 0 0 0 0 0 0 0 0 0 0 0 0 0 0 0 0 6 0 0 0 0 0 0 0 0 0 0 0 0 0 0 0 3 0 0 0 0 0 0 0 0 0 0 0 0 0 0 0 0 0 0 -6 0 0 0 0 0 0 0 0 0 0 0 0 0 0 0 0 0 0 0 0 0 0 0 0 0 0 0 0 0 0 0 0 0 27 0 0 0 0 0 0 0 0 0 0 0 0 0 0 0 0 6 0 0 0 0 0 0 0 0 0 0 0 0 0 0 0 0 0 0 0 0 0 0 0 0 0 0 0 0 0 -12 0 0 0 0 0 0 2 2 0 0 0 0 0 0 0 0 0 0 0 0 0 0 0 0 0 0 3 5 0 0 0 0 0 0 0 0 0 0 0 -43 0 0 0 0 0 0 0 0 0 0 0 0 -6 0 -27 0 0 0 -3 0 0 0 0 0 6 0 0 0 0 0 0 0 0 0 0 0 0 0 0 -27 0 0 0 0 0 0 0 0 0 0 0 0 -6 0 0 0 0 0 0 0 0 0 0 0 0 0 0 0 0 0 0 0 0 0 0 0 0 0 0 0 0 0 0 0 0 0 0 0 0 0 0 0 0 0 0 0 0 0 0 0 0 0 0 0 0 0 0 0 0 0 0 0 0 0 0 0 0 0 0 0 0 0 0 0 0 0 0 0 
-57 0 0 0 0 -4 -76 -3 0 0 -42 4 0 0 2 0 -14 0 -2 0 -35 0 0 0 0 0 -4 0 0 0 0 0 0 0 -5 0 0 2 0 -6 0 -1 0 0 0 0 0 0 0 0 0 0 3 0 0 0 0 -14 0 -5 -6 0 -6 0 -5 0 0 0 0 0 0 0 0 0 0 -10 0 0 0 0 0 0 0 0 0 0 0 0 -1 0 0 0 0 0 0 0 0 0 0 0 0 0 0 -4 0 0 -21 0 -4 0 1 0 0 3 0 0 0 0 -4 -29 0 0 0 0 -7 4 0 -22 0 0 -17 8 0 0 0 0 0 0 3 0 0 -29 0 1 0 0 0 0 0 0 0 0 0 0 0 0 0 -4 0 0 0 -6 0 0 0 0 0 0 0 0 0 0 0 0 0 0 0 0 0 -29 0 0 0 0 0 0 0 0 0 0 0 0 0 0 -3 0 -2 0 0 0 0 0 0 0 0 0 0 0 0 -2 0 -3 2 0 0 0 0 0 0 -5 0 0 0 0 0 6 0 0 0 0 0 -3 0 0 0 0 0 0 0 0 0 0 0 0 3 0 -2 0 0 0 -2 0 0 51 0 0 0 0 -57 0 0 0 0 0 0 0 0 0 -2 0 0 0 0 0 3 0 0 0 0 0 0 0 0 0 0 0 0 0 0 0 0 -2 0 0 0 0 10 0 0 0 -4 0 0 0 -2 0 0 0 0 0 0 0 0 0 0 0 0 0 0 0 0 0 0 0 0 0 0 0 0 0 0 6 0 0 0 0 0 0 0 0 0 0 4 0 0 0 2 0 0 0 0 1 0 0 0 0 0 0 0 0 2 0 0 0 0 26 0 0 0 0 -2 3 0 0 3 0 0 4 0 0 0 0 0 0 0 0 0 0 0 0 0 0 0 0 0 0 0 1 0 0 0 0 0 0 0 0 0 0 2 0 0 0 -38 0 0 -3 -2 0 0 0 6 0 0 0 0 0 0 0 0 0 0 0 0 0 0 0 0 0 2 3 5 0 1 0 0 0 0 0 -1 -2 0 -3 -53 -4 4 0 0 -3 0 0 -4 2 -2 0 2 -10 0 -17 0 0 0 0 0 0 0 0 0 -6 0 0 0 0 0 -4 0 -2 0 0 0 -3 1 -5 -21 2 0 5 -5 -3 0 0 -4 0 0 0 5 -5 0 0 0 0 -1 0 0 0 0 0 -2 0 0 0 0 0 0 0 0 0 0 0 0 0 0 0 0 0 0 0 0 0 0 0 0 0 0 0 0 0 0 0 0 0 0 0 0 0 0 0 0 0 0 0 0 0 0 0 0 0 0 0 0 0 0 0 0 0 0 0 0 0 0 0 0 
-74 0 0 0 0 0 -34 0 0 2 -1 -2 0 0 2 0 -10 0 0 0 -35 0 -6 8 0 0 9 0 0 2 -2 0 -6 0 -3 0 0 7 0 -9 2 8 8 0 0 0 0 0 0 0 0 1 3 0 0 0 0 -8 0 -3 0 0 -9 0 -12 -7 0 0 0 0 0 1 0 0 -6 -5 8 0 0 0 0 0 0 0 0 0 0 0 -1 0 0 0 0 0 0 0 0 0 2 0 0 0 0 4 0 0 -9 0 7 2 1 0 0 4 0 -77 -21 -1 -2 -21 0 0 0 0 -8 -4 0 -13 0 0 -1 4 0 0 0 0 0 0 3 -2 0 -13 0 0 0 0 0 0 0 0 0 0 0 0 0 -4 0 7 0 0 0 0 0 0 0 0 0 0 0 0 0 0 0 0 0 0 0 0 0 -13 0 0 0 0 0 0 0 -1 0 0 2 0 0 0 0 0 0 2 0 0 0 0 0 0 0 -1 0 0 0 -11 0 -6 0 0 0 0 0 0 0 -5 0 0 0 0 0 4 0 0 0 0 0 0 0 0 0 0 0 0 0 0 0 0 0 0 0 0 0 0 0 -77 0 0 0 74 0 0 0 0 0 0 0 0 0 4 0 0 0 0 -1 -1 0 0 0 0 3 0 0 0 0 0 0 0 0 0 0 0 2 0 0 0 0 0 0 0 0 0 5 0 0 0 -4 0 0 0 -1 0 0 0 0 0 0 0 0 0 1 0 0 0 0 0 0 0 0 0 0 0 1 0 0 0 0 0 0 0 0 0 0 0 -4 0 0 0 -7 0 0 0 0 0 0 0 0 1 0 0 0 0 0 0 0 0 0 0 0 0 0 4 0 0 0 0 -2 3 0 0 3 0 0 -4 0 0 0 0 10 0 0 0 0 0 0 0 0 0 0 0 0 0 2 0 0 0 0 0 0 2 0 0 0 0 1 0 0 6 0 0 0 -3 -3 0 0 2 0 0 0 0 0 0 0 0 0 0 0 0 0 0 -2 0 1 0 11 6 5 0 0 0 0 0 0 0 -1 1 0 0 -74 7 0 -6 0 -3 0 0 -2 0 -2 0 0 -5 0 0 0 0 0 0 -1 0 0 0 -1 0 0 0 4 0 0 7 0 0 0 0 0 0 1 0 -4 2 2 0 -2 -3 0 0 4 0 0 0 2 -12 0 0 0 0 0 0 0 -2 0 0 -1 0 0 0 0 0 0 0 0 0 0 0 0 0 0 0 0 0 0 0 0 0 0 0 0 0 0 0 0 0 0 0 0 0 0 0 0 0 0 0 0 0 0 0 0 0 0 0 0 0 0 0 0 0 0 0 0 0 0 0 0 0 0 0 0 
-74 -3 -3 -3 0 0 -76 0 0 0 -35 1 0 0 0 0 0 0 -8 0 3 -5 9 4 -3 0 4 0 0 0 -14 -4 46 0 -76 0 4 -14 0 4 0 -6 2 0 0 -1 -66 9 4 0 7 1 3 0 0 -34 -56 6 0 -5 -6 0 4 0 4 7 -1 6 0 0 -5 1 0 0 -19 4 9 0 0 0 0 0 0 0 0 -4 -2 0 -10 0 0 3 -2 0 0 0 0 0 0 0 0 0 0 0 0 0 21 0 -5 0 3 -5 0 -1 0 0 -27 0 -66 -45 0 0 0 0 0 0 0 -45 0 0 0 -8 2 0 0 0 0 0 3 0 0 29 0 1 0 0 0 3 0 0 1 0 0 0 0 1 0 -5 0 0 3 0 0 0 0 0 -10 0 0 0 0 0 0 0 0 0 0 0 0 29 0 0 0 0 0 0 0 0 0 0 7 0 0 0 -2 0 0 0 0 0 0 0 0 0 0 0 -2 0 0 -11 0 0 0 0 0 0 0 0 0 -3 0 0 0 0 0 -8 0 0 0 0 0 0 0 0 0 0 0 0 0 0 0 2 2 0 -3 0 0 5 0 0 1 0 0 73 0 0 0 0 0 0 0 0 0 -1 0 0 0 0 0 8 0 0 10 0 3 0 0 0 0 0 0 0 0 0 0 0 7 0 0 1 0 0 0 0 0 0 -4 0 6 0 4 0 0 0 0 0 0 0 0 0 0 0 0 0 0 0 0 5 0 0 0 0 0 0 0 0 0 0 0 0 0 6 1 0 0 0 0 0 1 0 0 0 5 0 10 0 -2 0 0 0 0 1 0 0 0 0 0 0 0 0 2 0 0 0 0 -8 0 0 0 0 0 -3 0 0 -3 0 0 0 1 0 0 0 0 0 0 0 0 0 0 0 0 0 0 2 0 0 -2 0 0 0 0 0 0 -2 0 0 0 0 0 66 -4 1 -27 -3 0 -3 -3 0 -7 0 6 0 0 0 0 0 -3 -34 0 0 0 0 0 0 0 0 0 2 11 0 3 0 1 0 0 0 0 -2 -10 2 0 3 -71 7 4 -19 0 -3 0 0 0 -5 -2 -1 0 4 -6 0 0 0 0 0 0 -5 0 0 0 -6 -1 0 -1 0 0 -5 -10 2 0 0 0 0 1 4 4 0 5 -10 5 3 0 0 0 -1 0 0 45 -45 0 0 -2 0 0 0 0 2 0 0 0 0 0 0 0 0 0 0 0 0 0 0 0 0 0 0 0 0 0 0 0 0 0 0 0 0 0 0 0 0 0 0 0 0 0 0 0 0 0 0 0 0 0 0 0 0 0 0 0 0 0 0 0 0 0 0 0 0 0 0 0 0 0 0 0 
-33 0 0 -4 4 -1 0 0 0 0 0 0 0 -4 8 -4 -3 0 0 0 -4 0 -13 2 -3 0 0 0 0 0 0 0 0 0 -3 0 0 -14 0 1 0 -4 0 0 0 0 0 3 0 0 -4 1 3 0 0 -10 0 -3 0 -3 0 0 0 0 0 0 0 9 0 0 0 1 0 0 0 0 0 0 0 0 0 0 0 0 0 0 0 0 0 0 0 3 -2 0 0 0 0 0 0 0 0 0 0 0 0 0 0 0 0 0 0 -4 0 0 0 0 0 0 0 0 0 0 0 0 0 0 0 0 0 0 0 0 0 0 0 0 0 0 0 0 0 0 0 0 0 0 0 0 0 0 0 0 0 0 0 -28 -1 0 0 0 0 9 0 0 0 0 0 0 0 0 0 0 0 0 0 0 0 0 0 0 0 0 0 0 0 0 0 0 0 0 0 0 0 0 0 0 0 0 0 0 0 0 0 0 0 0 -2 0 0 -11 0 0 0 0 0 0 0 0 0 0 0 0 0 0 0 0 0 0 0 0 0 0 0 0 0 -1 0 0 0 0 0 0 0 0 0 0 0 4 0 0 0 0 0 30 0 0 0 0 0 0 0 0 0 -4 0 0 0 0 0 0 0 0 0 0 3 0 0 0 0 0 0 0 0 0 0 0 0 0 0 0 0 0 0 0 0 0 0 0 0 0 0 0 0 0 0 0 0 0 0 0 0 0 0 0 0 0 0 4 0 0 0 0 0 0 0 0 0 0 0 0 0 0 0 0 0 0 0 0 4 0 0 0 0 0 0 0 2 0 0 0 0 0 0 0 0 0 0 0 0 0 0 0 0 0 0 0 0 0 0 0 0 0 0 0 0 0 0 0 0 0 0 0 0 0 0 0 0 0 0 0 0 0 0 0 0 0 0 1 0 0 0 0 0 0 0 0 0 0 0 0 0 0 0 -3 0 0 -3 0 0 0 0 0 0 0 1 0 0 -9 0 0 0 0 0 0 0 0 0 2 11 0 0 0 0 0 0 1 0 0 0 0 0 0 -32 0 0 0 0 -3 0 0 0 0 0 0 0 0 0 0 0 0 0 0 0 -4 0 0 0 0 0 0 -4 0 0 0 0 -2 0 0 0 0 0 0 0 0 3 -3 0 0 0 0 0 0 0 0 0 0 0 0 0 0 -1 0 0 0 0 0 0 0 0 0 0 0 0 0 0 0 0 0 0 0 0 0 0 0 0 0 0 0 0 0 0 0 0 0 0 0 0 0 0 0 0 0 0 0 0 0 0 0 0 0 0 0 0 0 0 0 0 0 0 0 0 0 0 0 0 0 0 0 0 0 0 
0 0 0 0 0 0 0 0 0 0 0 0 0 0 0 0 0 0 0 0 0 0 0 0 0 0 0 0 0 0 0 0 0 0 0 0 0 0 0 0 0 0 0 0 0 0 0 0 0 0 0 0 0 0 0 0 0 0 0 0 0 0 0 0 0 0 0 0 0 0 0 0 0 0 0 0 0 0 0 0 0 0 0 0 0 0 0 0 0 0 0 0 0 0 0 0 0 0 0 0 0 0 0 0 0 0 0 0 0 0 0 0 0 0 0 0 0 0 0 0 0 0 0 0 0 0 0 0 0 0 0 0 0 0 0 0 0 0 0 0 0 0 0 0 0 0 0 0 0 0 0 0 0 0 0 0 0 0 0 0 0 0 0 0 0 0 0 0 0 0 0 0 0 0 0 0 0 0 0 0 0 0 0 0 0 0 0 0 0 0 0 0 0 0 0 0 0 0 0 0 0 0 0 0 0 0 0 0 0 0 0 0 0 0 0 0 0 0 0 0 0 0 0 0 0 0 0 0 0 0 0 0 0 0 0 0 0 0 0 0 0 0 0 0 0 0 0 0 0 0 0 0 0 0 0 0 0 0 0 0 0 0 0 0 0 0 0 0 0 0 0 0 0 0 0 0 0 0 0 0 0 0 0 0 0 0 0 0 0 0 0 0 0 0 0 0 0 0 0 0 0 0 0 0 0 0 0 0 0 0 0 0 0 0 0 0 0 0 0 0 0 0 0 0 0 0 0 0 0 0 0 0 0 0 0 0 0 0 0 0 0 0 0 0 0 0 0 0 0 0 0 0 0 0 0 0 0 0 0 0 0 0 0 0 0 0 0 0 0 0 0 0 0 0 0 0 0 0 0 0 0 0 0 0 0 0 0 0 0 0 0 0 0 0 0 0 0 0 0 0 0 0 0 0 0 0 0 0 0 0 0 0 0 0 0 0 0 0 0 0 0 0 0 0 0 0 0 0 0 0 0 0 0 0 0 0 0 0 0 0 0 0 0 0 0 0 0 0 0 0 0 0 0 0 0 0 0 0 0 0 0 0 0 0 0 0 0 0 0 0 0 0 0 0 0 0 0 0 0 0 0 0 0 0 0 0 0 0 0 0 0 0 0 0 0 0 0 0 0 0 0 0 0 0 0 0 0 0 0 0 0 0 0 0 0 0 0 0 0 0 0 0 0 0 0 0 0 0 0 0 0 0 0 0 0 0 0 0 0 0 0 0 0 0 0 0 0 0 0 0 0 0 0 0 0 0 0 0 0 0 0 0 0 0 0 0 0 0 0 0 0 0 0 0 0 0 0 0 0 0 0 
-13 -3 -3 -2 -1 0 0 0 0 0 0 0 0 0 2 0 0 0 0 0 -8 0 0 0 0 0 0 0 0 0 0 0 0 0 -1 0 0 0 0 0 0 -8 0 0 0 0 -1 0 0 0 0 0 0 0 0 0 0 0 0 0 0 0 0 0 0 0 0 0 0 0 0 0 0 0 -1 0 0 0 0 0 0 0 0 0 0 0 0 0 0 0 0 0 0 0 0 0 0 0 0 0 0 0 0 0 0 0 0 0 0 0 0 -12 0 4 0 0 0 0 0 0 0 0 0 0 0 0 0 0 0 0 0 0 0 0 0 0 0 0 0 2 0 0 0 0 0 0 0 0 0 0 0 0 0 0 0 0 0 0 0 0 0 0 0 0 0 0 0 0 0 0 0 0 0 0 0 0 0 0 0 0 0 0 0 0 0 0 0 -1 0 0 0 0 0 0 0 0 0 0 0 0 0 0 0 0 0 -1 0 0 0 0 0 0 0 0 0 0 0 0 0 0 0 0 0 0 0 0 0 0 0 0 0 0 0 0 0 0 0 0 0 0 0 0 0 0 0 0 0 -6 0 0 0 0 0 10 0 0 0 0 0 0 0 0 0 0 0 0 0 0 0 0 0 0 0 0 0 0 0 0 0 0 0 0 0 0 0 0 0 0 0 0 0 0 0 0 0 0 0 0 0 0 -1 0 0 0 0 0 0 0 0 0 0 0 0 0 0 0 0 -6 0 0 0 0 0 0 0 0 1 0 0 0 0 0 0 0 0 0 0 0 0 0 0 0 0 0 0 0 0 0 0 0 0 0 0 0 0 0 0 0 0 0 0 0 0 0 0 0 0 0 0 0 0 3 0 0 3 0 0 0 0 0 0 0 0 0 0 0 0 0 0 0 0 0 0 0 0 0 0 0 0 0 0 0 0 0 0 0 0 0 0 1 0 0 0 0 0 0 0 0 0 -2 0 0 0 0 0 0 0 0 0 0 0 0 0 0 0 0 0 0 0 0 0 0 0 0 0 0 0 0 0 0 0 0 -10 0 1 -1 0 0 0 0 0 0 0 0 0 0 0 1 0 0 0 0 0 -12 0 0 -1 0 0 0 0 0 0 0 0 0 0 0 0 0 0 0 0 0 0 0 0 -3 0 0 0 0 0 0 0 0 0 0 0 0 0 0 0 0 0 0 0 0 0 0 0 0 0 0 0 0 0 0 0 0 0 0 0 0 0 0 0 0 0 0 0 0 0 0 0 0 0 0 0 0 0 0 0 0 0 0 0 0 0 0 0 0 0 0 0 0 0 0 0 0 0 0 0 0 0 0 0 0 0 0 0 
#OUTPUT END
Model has been successfully processed
